c numero: 81
c nombre: n-60-d-0.3
c densidad: 0.3
p edges 60 507
e 1 3
e 1 6
e 1 10
e 1 21
e 1 22
e 1 33
e 1 36
e 1 38
e 1 40
e 1 41
e 1 45
e 1 48
e 1 49
e 1 54
e 1 56
e 1 58
e 2 4
e 2 5
e 2 14
e 2 26
e 2 34
e 2 43
e 2 48
e 2 53
e 2 55
e 2 56
e 3 13
e 3 14
e 3 20
e 3 22
e 3 23
e 3 24
e 3 31
e 3 36
e 3 37
e 3 41
e 3 44
e 3 48
e 3 51
e 3 54
e 3 58
e 3 59
e 4 6
e 4 8
e 4 10
e 4 11
e 4 14
e 4 16
e 4 18
e 4 22
e 4 27
e 4 42
e 4 43
e 4 45
e 4 59
e 5 6
e 5 9
e 5 10
e 5 11
e 5 16
e 5 19
e 5 26
e 5 27
e 5 29
e 5 34
e 5 35
e 5 39
e 5 45
e 5 51
e 5 55
e 6 14
e 6 18
e 6 23
e 6 28
e 6 29
e 6 30
e 6 32
e 6 33
e 6 43
e 6 47
e 6 53
e 6 56
e 6 57
e 6 58
e 7 9
e 7 13
e 7 14
e 7 16
e 7 17
e 7 18
e 7 22
e 7 26
e 7 28
e 7 31
e 7 33
e 7 35
e 7 39
e 7 41
e 7 48
e 7 56
e 7 59
e 8 12
e 8 14
e 8 22
e 8 23
e 8 28
e 8 29
e 8 31
e 8 36
e 8 39
e 8 44
e 8 46
e 8 50
e 8 52
e 8 57
e 8 58
e 8 59
e 9 11
e 9 13
e 9 14
e 9 20
e 9 24
e 9 28
e 9 30
e 9 32
e 9 34
e 9 41
e 9 48
e 9 51
e 9 53
e 9 55
e 9 58
e 10 11
e 10 12
e 10 16
e 10 17
e 10 22
e 10 23
e 10 29
e 10 35
e 10 38
e 10 40
e 10 42
e 10 48
e 10 59
e 11 13
e 11 14
e 11 15
e 11 17
e 11 18
e 11 19
e 11 21
e 11 22
e 11 23
e 11 24
e 11 27
e 11 29
e 11 30
e 11 31
e 11 40
e 11 42
e 11 45
e 11 46
e 11 49
e 11 52
e 11 53
e 11 54
e 11 59
e 12 14
e 12 18
e 12 25
e 12 27
e 12 28
e 12 36
e 12 42
e 12 43
e 12 44
e 12 45
e 12 48
e 12 49
e 12 50
e 12 53
e 12 54
e 12 55
e 12 56
e 12 60
e 13 14
e 13 15
e 13 17
e 13 19
e 13 20
e 13 22
e 13 27
e 13 29
e 13 30
e 13 33
e 13 36
e 13 37
e 13 38
e 13 39
e 13 40
e 13 51
e 13 54
e 13 55
e 13 56
e 13 57
e 13 60
e 14 29
e 14 31
e 14 34
e 14 46
e 14 50
e 14 51
e 14 57
e 14 58
e 15 20
e 15 22
e 15 24
e 15 28
e 15 32
e 15 40
e 15 50
e 15 52
e 15 55
e 15 56
e 15 59
e 16 18
e 16 26
e 16 35
e 16 45
e 16 46
e 16 48
e 16 49
e 16 50
e 16 54
e 16 57
e 16 60
e 17 19
e 17 24
e 17 25
e 17 30
e 17 34
e 17 40
e 17 45
e 17 47
e 17 48
e 17 58
e 18 19
e 18 37
e 18 42
e 18 44
e 18 45
e 18 46
e 18 48
e 18 53
e 18 55
e 18 56
e 18 57
e 19 25
e 19 29
e 19 31
e 19 33
e 19 39
e 19 52
e 19 57
e 19 60
e 20 21
e 20 25
e 20 26
e 20 31
e 20 37
e 20 42
e 20 55
e 20 59
e 21 25
e 21 30
e 21 31
e 21 33
e 21 34
e 21 38
e 21 42
e 21 48
e 21 52
e 21 53
e 21 56
e 21 57
e 22 27
e 22 31
e 22 32
e 22 33
e 22 38
e 22 39
e 22 41
e 22 54
e 22 56
e 22 57
e 23 26
e 23 31
e 23 33
e 23 34
e 23 41
e 23 51
e 23 55
e 23 56
e 24 25
e 24 27
e 24 30
e 24 31
e 24 35
e 24 41
e 24 44
e 24 49
e 24 51
e 24 52
e 24 54
e 24 59
e 25 27
e 25 28
e 25 30
e 25 32
e 25 34
e 25 39
e 25 47
e 25 48
e 25 50
e 25 53
e 25 56
e 25 58
e 25 60
e 26 27
e 26 29
e 26 31
e 26 35
e 26 37
e 26 42
e 26 43
e 26 45
e 26 46
e 26 47
e 26 58
e 26 60
e 27 32
e 27 35
e 27 41
e 27 43
e 27 46
e 27 47
e 27 48
e 27 50
e 27 54
e 27 56
e 27 60
e 28 29
e 28 31
e 28 35
e 28 41
e 28 46
e 28 52
e 28 54
e 28 56
e 29 32
e 29 34
e 29 38
e 29 40
e 29 42
e 29 43
e 29 45
e 29 47
e 29 51
e 29 52
e 29 53
e 29 54
e 29 56
e 29 60
e 30 32
e 30 33
e 30 35
e 30 37
e 30 42
e 30 44
e 30 60
e 31 33
e 31 38
e 31 39
e 31 49
e 31 50
e 31 51
e 32 33
e 32 35
e 32 37
e 32 43
e 32 48
e 32 49
e 32 50
e 33 38
e 33 40
e 33 46
e 33 48
e 33 51
e 33 58
e 34 44
e 34 53
e 34 56
e 34 57
e 35 37
e 35 43
e 35 48
e 35 52
e 35 56
e 35 59
e 36 39
e 36 40
e 36 46
e 36 48
e 36 49
e 36 51
e 36 53
e 36 55
e 37 38
e 37 40
e 37 48
e 37 50
e 37 54
e 37 57
e 37 60
e 38 41
e 38 43
e 38 49
e 38 53
e 38 55
e 39 40
e 39 43
e 39 48
e 39 50
e 39 51
e 39 52
e 40 46
e 40 49
e 40 50
e 40 57
e 40 58
e 40 59
e 41 43
e 41 46
e 41 48
e 41 49
e 41 54
e 41 56
e 41 57
e 42 48
e 42 49
e 42 52
e 42 54
e 42 57
e 42 58
e 43 44
e 43 46
e 43 51
e 43 52
e 43 59
e 43 60
e 44 46
e 44 47
e 44 53
e 44 54
e 44 57
e 44 60
e 45 47
e 45 50
e 45 53
e 45 55
e 45 58
e 45 60
e 46 48
e 46 54
e 46 56
e 46 58
e 46 59
e 46 60
e 47 49
e 47 51
e 47 54
e 47 56
e 47 58
e 47 60
e 48 51
e 48 58
e 48 60
e 49 50
e 49 55
e 49 56
e 49 58
e 49 59
e 50 54
e 50 58
e 51 57
e 52 55
e 52 57
e 53 55
e 53 59
e 53 60
e 54 56
e 54 58
e 55 56
e 55 58
e 55 60
e 58 60
